p tw 176 39601 2 
1 3 
1 4 
1 5 
1 6 
1 7 
1 8 
1 9 
1 10 
1 11 
1 12 
1 13 
1 14 
1 15 
1 16 
1 17 
1 18 
1 19 
1 20 
1 21 
1 22 
1 23 
1 24 
1 25 
1 26 
1 27 
1 28 
1 29 
1 30 
1 31 
1 43 
1 54 
1 67 
1 79 
1 90 
1 99 
1 107 
1 117 
1 126 
1 132 
1 137 
1 142 
1 156 
1 161 
1 167 
2 3 
2 4 
2 5 
2 6 
2 7 
2 8 
2 9 
2 10 
2 11 
2 12 
2 13 
2 14 
2 15 
2 16 
2 17 
2 29 
2 32 
2 33 
2 34 
2 35 
2 36 
2 37 
2 38 
2 39 
2 40 
2 41 
2 42 
2 43 
2 44 
2 45 
2 58 
2 67 
2 81 
2 88 
2 100 
2 108 
2 120 
2 128 
2 129 
2 140 
2 152 
2 159 
2 172 
2 175 
3 4 
3 5 
3 6 
3 7 
3 8 
3 9 
3 10 
3 11 
3 12 
3 13 
3 14 
3 15 
3 16 
3 18 
3 22 
3 32 
3 39 
3 46 
3 47 
3 48 
3 49 
3 50 
3 51 
3 52 
3 53 
3 54 
3 55 
3 56 
3 57 
3 58 
3 60 
3 78 
3 89 
3 113 
3 125 
3 131 
3 145 
3 152 
3 156 
3 160 
3 164 
3 165 
3 166 
4 5 
4 6 
4 7 
4 8 
4 9 
4 10 
4 11 
4 12 
4 13 
4 14 
4 15 
4 16 
4 19 
4 27 
4 33 
4 44 
4 46 
4 57 
4 59 
4 60 
4 61 
4 62 
4 63 
4 64 
4 65 
4 66 
4 67 
4 68 
4 69 
4 70 
4 81 
4 89 
4 101 
4 110 
4 119 
4 124 
4 135 
4 136 
4 153 
4 157 
4 167 
4 170 
5 6 
5 7 
5 8 
5 9 
5 10 
5 11 
5 12 
5 13 
5 14 
5 15 
5 16 
5 20 
5 24 
5 34 
5 35 
5 46 
5 50 
5 63 
5 71 
5 72 
5 73 
5 74 
5 75 
5 76 
5 77 
5 78 
5 79 
5 80 
5 81 
5 82 
5 94 
5 103 
5 112 
5 121 
5 122 
5 123 
5 124 
5 125 
5 126 
5 127 
5 128 
6 7 
6 8 
6 9 
6 10 
6 11 
6 12 
6 13 
6 14 
6 15 
6 16 
6 21 
6 24 
6 35 
6 41 
6 47 
6 53 
6 59 
6 62 
6 71 
6 72 
6 83 
6 84 
6 85 
6 86 
6 87 
6 88 
6 89 
6 90 
6 91 
6 92 
6 99 
6 133 
6 138 
6 148 
6 154 
6 160 
6 168 
6 170 
6 171 
6 172 
7 8 
7 9 
7 10 
7 11 
7 12 
7 13 
7 14 
7 15 
7 16 
7 20 
7 23 
7 36 
7 37 
7 48 
7 49 
7 60 
7 62 
7 73 
7 83 
7 84 
7 93 
7 94 
7 95 
7 96 
7 97 
7 98 
7 99 
7 100 
7 101 
7 102 
7 112 
7 113 
7 114 
7 115 
7 116 
7 117 
7 118 
7 119 
7 120 
8 9 
8 10 
8 11 
8 12 
8 13 
8 14 
8 15 
8 16 
8 22 
8 25 
8 32 
8 45 
8 58 
8 61 
8 69 
8 72 
8 77 
8 84 
8 92 
8 93 
8 94 
8 103 
8 104 
8 105 
8 106 
8 107 
8 108 
8 109 
8 110 
8 111 
8 118 
8 137 
8 144 
8 154 
8 157 
8 164 
8 173 
8 174 
9 10 
9 11 
9 12 
9 13 
9 14 
9 15 
9 16 
9 25 
9 30 
9 37 
9 42 
9 51 
9 56 
9 61 
9 70 
9 74 
9 82 
9 85 
9 90 
9 95 
9 101 
9 105 
9 120 
9 121 
9 122 
9 129 
9 130 
9 131 
9 132 
9 133 
9 134 
9 135 
9 145 
9 149 
9 158 
9 171 
9 174 
10 11 
10 12 
10 13 
10 14 
10 15 
10 16 
10 17 
10 23 
10 33 
10 47 
10 52 
10 64 
10 75 
10 78 
10 86 
10 95 
10 102 
10 104 
10 109 
10 113 
10 122 
10 123 
10 130 
10 136 
10 137 
10 138 
10 139 
10 140 
10 141 
10 155 
10 158 
10 163 
10 167 
10 168 
10 173 
10 175 
11 12 
11 13 
11 14 
11 15 
11 16 
11 26 
11 31 
11 38 
11 40 
11 48 
11 53 
11 65 
11 69 
11 71 
11 76 
11 87 
11 93 
11 106 
11 114 
11 117 
11 123 
11 125 
11 129 
11 135 
11 136 
11 139 
11 142 
11 143 
11 144 
11 145 
11 147 
11 169 
11 171 
11 175 
11 176 
12 13 
12 14 
12 15 
12 16 
12 27 
12 29 
12 39 
12 42 
12 49 
12 52 
12 64 
12 66 
12 74 
12 77 
12 83 
12 88 
12 96 
12 103 
12 106 
12 116 
12 124 
12 130 
12 142 
12 144 
12 146 
12 147 
12 148 
12 149 
12 150 
12 151 
12 160 
12 161 
12 162 
12 163 
13 14 
13 15 
13 16 
13 26 
13 31 
13 40 
13 45 
13 54 
13 55 
13 63 
13 70 
13 75 
13 80 
13 85 
13 87 
13 97 
13 102 
13 105 
13 110 
13 112 
13 115 
13 134 
13 141 
13 146 
13 150 
13 151 
13 152 
13 153 
13 154 
13 155 
13 161 
13 166 
13 172 
14 15 
14 16 
14 21 
14 28 
14 34 
14 41 
14 55 
14 57 
14 59 
14 68 
14 73 
14 97 
14 98 
14 104 
14 111 
14 114 
14 121 
14 128 
14 132 
14 141 
14 143 
14 147 
14 148 
14 151 
14 156 
14 157 
14 158 
14 159 
14 163 
14 165 
14 169 
14 174 
15 16 
15 18 
15 19 
15 43 
15 44 
15 56 
15 65 
15 80 
15 82 
15 86 
15 91 
15 96 
15 98 
15 108 
15 111 
15 116 
15 118 
15 126 
15 127 
15 131 
15 133 
15 140 
15 143 
15 146 
15 153 
15 162 
15 166 
15 168 
15 169 
15 173 
15 176 
16 28 
16 30 
16 36 
16 38 
16 50 
16 51 
16 66 
16 68 
16 76 
16 79 
16 91 
16 92 
16 100 
16 107 
16 109 
16 115 
16 119 
16 127 
16 134 
16 138 
16 139 
16 149 
16 150 
16 155 
16 159 
16 162 
16 164 
16 165 
16 170 
16 176 
17 18 
17 19 
17 20 
17 21 
17 22 
17 23 
17 24 
17 25 
17 26 
17 27 
17 28 
17 29 
17 30 
17 31 
17 32 
17 33 
17 34 
17 35 
17 36 
17 37 
17 38 
17 39 
17 40 
17 41 
17 42 
17 43 
17 44 
17 45 
17 52 
17 64 
17 75 
17 86 
17 95 
17 104 
17 113 
17 122 
17 136 
17 137 
17 138 
17 139 
17 140 
17 141 
18 19 
18 20 
18 21 
18 22 
18 23 
18 24 
18 25 
18 26 
18 27 
18 28 
18 29 
18 30 
18 31 
18 32 
18 44 
18 46 
18 47 
18 48 
18 49 
18 50 
18 51 
18 52 
18 53 
18 54 
18 55 
18 56 
18 57 
18 58 
18 65 
18 82 
18 91 
18 98 
18 111 
18 116 
18 126 
18 133 
18 140 
18 146 
18 166 
18 173 
18 176 
19 20 
19 21 
19 22 
19 23 
19 24 
19 25 
19 26 
19 27 
19 28 
19 29 
19 30 
19 31 
19 33 
19 43 
19 46 
19 56 
19 59 
19 60 
19 61 
19 62 
19 63 
19 64 
19 65 
19 66 
19 67 
19 68 
19 69 
19 70 
19 80 
19 86 
19 96 
19 108 
19 118 
19 127 
19 131 
19 143 
19 153 
19 162 
19 168 
19 169 
20 21 
20 22 
20 23 
20 24 
20 25 
20 26 
20 27 
20 28 
20 29 
20 30 
20 31 
20 34 
20 36 
20 46 
20 48 
20 60 
20 71 
20 72 
20 73 
20 74 
20 75 
20 76 
20 77 
20 78 
20 79 
20 80 
20 81 
20 82 
20 83 
20 93 
20 94 
20 95 
20 96 
20 97 
20 98 
20 99 
20 100 
20 101 
20 102 
21 22 
21 23 
21 24 
21 25 
21 26 
21 27 
21 28 
21 29 
21 30 
21 31 
21 34 
21 35 
21 47 
21 57 
21 59 
21 68 
21 71 
21 83 
21 84 
21 85 
21 86 
21 87 
21 88 
21 89 
21 90 
21 91 
21 92 
21 97 
21 111 
21 114 
21 128 
21 132 
21 141 
21 148 
21 163 
21 165 
21 169 
21 174 
22 23 
22 24 
22 25 
22 26 
22 27 
22 28 
22 29 
22 30 
22 31 
22 32 
22 39 
22 60 
22 61 
22 72 
22 78 
22 84 
22 89 
22 93 
22 103 
22 104 
22 105 
22 106 
22 107 
22 108 
22 109 
22 110 
22 111 
22 113 
22 125 
22 131 
22 145 
22 152 
22 156 
22 160 
22 164 
22 165 
22 166 
23 24 
23 25 
23 26 
23 27 
23 28 
23 29 
23 30 
23 31 
23 33 
23 37 
23 47 
23 49 
23 62 
23 73 
23 78 
23 84 
23 102 
23 109 
23 112 
23 113 
23 114 
23 115 
23 116 
23 117 
23 118 
23 119 
23 120 
23 123 
23 130 
23 155 
23 158 
23 163 
23 167 
23 168 
23 173 
23 175 
24 25 
24 26 
24 27 
24 28 
24 29 
24 30 
24 31 
24 35 
24 41 
24 50 
24 53 
24 62 
24 63 
24 72 
24 94 
24 99 
24 103 
24 112 
24 121 
24 122 
24 123 
24 124 
24 125 
24 126 
24 127 
24 128 
24 133 
24 138 
24 148 
24 154 
24 160 
24 168 
24 170 
24 171 
24 172 
25 26 
25 27 
25 28 
25 29 
25 30 
25 31 
25 37 
25 45 
25 51 
25 58 
25 61 
25 69 
25 74 
25 77 
25 85 
25 92 
25 94 
25 95 
25 118 
25 121 
25 129 
25 130 
25 131 
25 132 
25 133 
25 134 
25 135 
25 137 
25 144 
25 154 
25 157 
25 164 
25 173 
25 174 
26 27 
26 28 
26 29 
26 30 
26 31 
26 38 
26 40 
26 53 
26 54 
26 63 
26 65 
26 75 
26 76 
26 85 
26 87 
26 93 
26 97 
26 105 
26 114 
26 115 
26 123 
26 129 
26 136 
26 142 
26 143 
26 144 
26 145 
26 146 
26 151 
26 152 
26 153 
26 154 
26 155 
27 28 
27 29 
27 30 
27 31 
27 39 
27 44 
27 49 
27 57 
27 64 
27 77 
27 81 
27 88 
27 89 
27 96 
27 101 
27 103 
27 110 
27 119 
27 124 
27 130 
27 135 
27 136 
27 142 
27 146 
27 147 
27 148 
27 149 
27 150 
27 153 
27 157 
27 167 
27 170 
28 29 
28 30 
28 31 
28 38 
28 41 
28 50 
28 55 
28 59 
28 68 
28 73 
28 79 
28 91 
28 98 
28 100 
28 104 
28 109 
28 115 
28 121 
28 134 
28 139 
28 143 
28 147 
28 149 
28 151 
28 156 
28 157 
28 158 
28 159 
28 162 
28 164 
28 170 
29 30 
29 31 
29 42 
29 52 
29 58 
29 66 
29 67 
29 74 
29 81 
29 83 
29 88 
29 100 
29 106 
29 108 
29 116 
29 120 
29 124 
29 128 
29 129 
29 140 
29 144 
29 151 
29 152 
29 159 
29 160 
29 161 
29 162 
29 163 
29 172 
29 175 
30 31 
30 36 
30 42 
30 51 
30 56 
30 66 
30 70 
30 76 
30 82 
30 90 
30 92 
30 101 
30 105 
30 107 
30 119 
30 120 
30 122 
30 127 
30 138 
30 145 
30 149 
30 150 
30 155 
30 158 
30 159 
30 165 
30 171 
30 174 
30 176 
31 40 
31 45 
31 48 
31 55 
31 69 
31 70 
31 71 
31 80 
31 87 
31 102 
31 106 
31 110 
31 112 
31 117 
31 125 
31 134 
31 135 
31 139 
31 141 
31 147 
31 150 
31 161 
31 166 
31 169 
31 171 
31 172 
31 175 
31 176 
32 33 
32 34 
32 35 
32 36 
32 37 
32 38 
32 39 
32 40 
32 41 
32 42 
32 43 
32 44 
32 45 
32 46 
32 47 
32 48 
32 49 
32 50 
32 51 
32 52 
32 53 
32 54 
32 55 
32 56 
32 57 
32 58 
32 61 
32 72 
32 84 
32 93 
32 103 
32 104 
32 105 
32 106 
32 107 
32 108 
32 109 
32 110 
32 111 
33 34 
33 35 
33 36 
33 37 
33 38 
33 39 
33 40 
33 41 
33 42 
33 43 
33 44 
33 45 
33 46 
33 47 
33 59 
33 60 
33 61 
33 62 
33 63 
33 64 
33 65 
33 66 
33 67 
33 68 
33 69 
33 70 
33 78 
33 102 
33 109 
33 123 
33 130 
33 155 
33 158 
33 163 
33 167 
33 168 
33 173 
33 175 
34 35 
34 36 
34 37 
34 38 
34 39 
34 40 
34 41 
34 42 
34 43 
34 44 
34 45 
34 46 
34 57 
34 68 
34 71 
34 72 
34 73 
34 74 
34 75 
34 76 
34 77 
34 78 
34 79 
34 80 
34 81 
34 82 
34 97 
34 111 
34 114 
34 128 
34 132 
34 141 
34 148 
34 163 
34 165 
34 169 
34 174 
35 36 
35 37 
35 38 
35 39 
35 40 
35 41 
35 42 
35 43 
35 44 
35 45 
35 47 
35 50 
35 59 
35 63 
35 71 
35 83 
35 84 
35 85 
35 86 
35 87 
35 88 
35 89 
35 90 
35 91 
35 92 
35 94 
35 103 
35 112 
35 121 
35 122 
35 123 
35 124 
35 125 
35 126 
35 127 
35 128 
36 37 
36 38 
36 39 
36 40 
36 41 
36 42 
36 43 
36 44 
36 45 
36 48 
36 51 
36 60 
36 66 
36 76 
36 83 
36 92 
36 93 
36 94 
36 95 
36 96 
36 97 
36 98 
36 99 
36 100 
36 101 
36 102 
36 107 
36 119 
36 127 
36 138 
36 150 
36 155 
36 159 
36 165 
36 176 
37 38 
37 39 
37 40 
37 41 
37 42 
37 43 
37 44 
37 45 
37 49 
37 51 
37 61 
37 62 
37 73 
37 74 
37 84 
37 85 
37 95 
37 112 
37 113 
37 114 
37 115 
37 116 
37 117 
37 118 
37 119 
37 120 
37 121 
37 129 
37 130 
37 131 
37 132 
37 133 
37 134 
37 135 
38 39 
38 40 
38 41 
38 42 
38 43 
38 44 
38 45 
38 50 
38 53 
38 65 
38 68 
38 76 
38 79 
38 87 
38 91 
38 93 
38 100 
38 109 
38 114 
38 115 
38 123 
38 129 
38 134 
38 136 
38 139 
38 142 
38 143 
38 144 
38 145 
38 149 
38 162 
38 164 
38 170 
39 40 
39 41 
39 42 
39 43 
39 44 
39 45 
39 49 
39 60 
39 64 
39 77 
39 78 
39 88 
39 89 
39 96 
39 103 
39 113 
39 125 
39 130 
39 131 
39 142 
39 145 
39 146 
39 147 
39 148 
39 149 
39 150 
39 152 
39 156 
39 160 
39 164 
39 165 
39 166 
40 41 
40 42 
40 43 
40 44 
40 45 
40 48 
40 54 
40 63 
40 69 
40 71 
40 75 
40 85 
40 97 
40 105 
40 106 
40 115 
40 117 
40 125 
40 135 
40 139 
40 146 
40 147 
40 151 
40 152 
40 153 
40 154 
40 155 
40 169 
40 171 
40 175 
40 176 
41 42 
41 43 
41 44 
41 45 
41 53 
41 55 
41 59 
41 62 
41 72 
41 73 
41 98 
41 99 
41 104 
41 121 
41 133 
41 138 
41 143 
41 147 
41 148 
41 151 
41 154 
41 156 
41 157 
41 158 
41 159 
41 160 
41 168 
41 170 
41 171 
41 172 
42 43 
42 44 
42 45 
42 52 
42 56 
42 66 
42 70 
42 74 
42 82 
42 83 
42 90 
42 101 
42 105 
42 106 
42 116 
42 120 
42 122 
42 124 
42 144 
42 145 
42 149 
42 151 
42 158 
42 160 
42 161 
42 162 
42 163 
42 171 
42 174 
43 44 
43 45 
43 54 
43 56 
43 67 
43 79 
43 80 
43 86 
43 90 
43 96 
43 99 
43 107 
43 108 
43 117 
43 118 
43 126 
43 127 
43 131 
43 132 
43 137 
43 142 
43 143 
43 153 
43 156 
43 161 
43 162 
43 167 
43 168 
43 169 
44 45 
44 57 
44 65 
44 81 
44 82 
44 89 
44 91 
44 98 
44 101 
44 110 
44 111 
44 116 
44 119 
44 124 
44 126 
44 133 
44 135 
44 136 
44 140 
44 146 
44 153 
44 157 
44 166 
44 167 
44 170 
44 173 
44 176 
45 55 
45 58 
45 69 
45 70 
45 77 
45 80 
45 87 
45 92 
45 94 
45 102 
45 110 
45 112 
45 118 
45 134 
45 137 
45 141 
45 144 
45 150 
45 154 
45 157 
45 161 
45 164 
45 166 
45 172 
45 173 
45 174 
46 47 
46 48 
46 49 
46 50 
46 51 
46 52 
46 53 
46 54 
46 55 
46 56 
46 57 
46 58 
46 59 
46 60 
46 61 
46 62 
46 63 
46 64 
46 65 
46 66 
46 67 
46 68 
46 69 
46 70 
46 71 
46 72 
46 73 
46 74 
46 75 
46 76 
46 77 
46 78 
46 79 
46 80 
46 81 
46 82 
47 48 
47 49 
47 50 
47 51 
47 52 
47 53 
47 54 
47 55 
47 56 
47 57 
47 58 
47 59 
47 71 
47 78 
47 83 
47 84 
47 85 
47 86 
47 87 
47 88 
47 89 
47 90 
47 91 
47 92 
47 102 
47 109 
47 123 
47 130 
47 155 
47 158 
47 163 
47 167 
47 168 
47 173 
47 175 
48 49 
48 50 
48 51 
48 52 
48 53 
48 54 
48 55 
48 56 
48 57 
48 58 
48 60 
48 69 
48 71 
48 83 
48 93 
48 94 
48 95 
48 96 
48 97 
48 98 
48 99 
48 100 
48 101 
48 102 
48 106 
48 117 
48 125 
48 135 
48 139 
48 147 
48 169 
48 171 
48 175 
48 176 
49 50 
49 51 
49 52 
49 53 
49 54 
49 55 
49 56 
49 57 
49 58 
49 62 
49 64 
49 73 
49 77 
49 84 
49 88 
49 96 
49 103 
49 112 
49 113 
49 114 
49 115 
49 116 
49 117 
49 118 
49 119 
49 120 
49 130 
49 142 
49 146 
49 147 
49 148 
49 149 
49 150 
50 51 
50 52 
50 53 
50 54 
50 55 
50 56 
50 57 
50 58 
50 63 
50 68 
50 79 
50 91 
50 94 
50 100 
50 103 
50 109 
50 112 
50 115 
50 121 
50 122 
50 123 
50 124 
50 125 
50 126 
50 127 
50 128 
50 134 
50 139 
50 149 
50 162 
50 164 
50 170 
51 52 
51 53 
51 54 
51 55 
51 56 
51 57 
51 58 
51 61 
51 66 
51 74 
51 76 
51 85 
51 92 
51 95 
51 107 
51 119 
51 121 
51 127 
51 129 
51 130 
51 131 
51 132 
51 133 
51 134 
51 135 
51 138 
51 150 
51 155 
51 159 
51 165 
51 176 
52 53 
52 54 
52 55 
52 56 
52 57 
52 58 
52 64 
52 66 
52 74 
52 75 
52 83 
52 86 
52 95 
52 104 
52 106 
52 113 
52 116 
52 122 
52 124 
52 136 
52 137 
52 138 
52 139 
52 140 
52 141 
52 144 
52 151 
52 160 
52 161 
52 162 
52 163 
53 54 
53 55 
53 56 
53 57 
53 58 
53 62 
53 65 
53 72 
53 76 
53 87 
53 93 
53 99 
53 114 
53 123 
53 129 
53 133 
53 136 
53 138 
53 142 
53 143 
53 144 
53 145 
53 148 
53 154 
53 160 
53 168 
53 170 
53 171 
53 172 
54 55 
54 56 
54 57 
54 58 
54 63 
54 67 
54 75 
54 79 
54 85 
54 90 
54 97 
54 99 
54 105 
54 107 
54 115 
54 117 
54 126 
54 132 
54 137 
54 142 
54 146 
54 151 
54 152 
54 153 
54 154 
54 155 
54 156 
54 161 
54 167 
55 56 
55 57 
55 58 
55 59 
55 70 
55 73 
55 80 
55 87 
55 98 
55 102 
55 104 
55 110 
55 112 
55 121 
55 134 
55 141 
55 143 
55 147 
55 150 
55 151 
55 156 
55 157 
55 158 
55 159 
55 161 
55 166 
55 172 
56 57 
56 58 
56 70 
56 80 
56 82 
56 86 
56 90 
56 96 
56 101 
56 105 
56 108 
56 118 
56 120 
56 122 
56 127 
56 131 
56 143 
56 145 
56 149 
56 153 
56 158 
56 162 
56 168 
56 169 
56 171 
56 174 
57 58 
57 68 
57 81 
57 89 
57 97 
57 101 
57 110 
57 111 
57 114 
57 119 
57 124 
57 128 
57 132 
57 135 
57 136 
57 141 
57 148 
57 153 
57 157 
57 163 
57 165 
57 167 
57 169 
57 170 
57 174 
58 67 
58 69 
58 77 
58 81 
58 88 
58 92 
58 94 
58 100 
58 108 
58 118 
58 120 
58 128 
58 129 
58 137 
58 140 
58 144 
58 152 
58 154 
58 157 
58 159 
58 164 
58 172 
58 173 
58 174 
58 175 
59 60 
59 61 
59 62 
59 63 
59 64 
59 65 
59 66 
59 67 
59 68 
59 69 
59 70 
59 71 
59 73 
59 83 
59 84 
59 85 
59 86 
59 87 
59 88 
59 89 
59 90 
59 91 
59 92 
59 98 
59 104 
59 121 
59 143 
59 147 
59 151 
59 156 
59 157 
59 158 
59 159 
60 61 
60 62 
60 63 
60 64 
60 65 
60 66 
60 67 
60 68 
60 69 
60 70 
60 78 
60 83 
60 89 
60 93 
60 94 
60 95 
60 96 
60 97 
60 98 
60 99 
60 100 
60 101 
60 102 
60 113 
60 125 
60 131 
60 145 
60 152 
60 156 
60 160 
60 164 
60 165 
60 166 
61 62 
61 63 
61 64 
61 65 
61 66 
61 67 
61 68 
61 69 
61 70 
61 72 
61 74 
61 84 
61 85 
61 93 
61 95 
61 103 
61 104 
61 105 
61 106 
61 107 
61 108 
61 109 
61 110 
61 111 
61 121 
61 129 
61 130 
61 131 
61 132 
61 133 
61 134 
61 135 
62 63 
62 64 
62 65 
62 66 
62 67 
62 68 
62 69 
62 70 
62 72 
62 73 
62 84 
62 99 
62 112 
62 113 
62 114 
62 115 
62 116 
62 117 
62 118 
62 119 
62 120 
62 133 
62 138 
62 148 
62 154 
62 160 
62 168 
62 170 
62 171 
62 172 
63 64 
63 65 
63 66 
63 67 
63 68 
63 69 
63 70 
63 75 
63 85 
63 94 
63 97 
63 103 
63 105 
63 112 
63 115 
63 121 
63 122 
63 123 
63 124 
63 125 
63 126 
63 127 
63 128 
63 146 
63 151 
63 152 
63 153 
63 154 
63 155 
64 65 
64 66 
64 67 
64 68 
64 69 
64 70 
64 75 
64 77 
64 86 
64 88 
64 95 
64 96 
64 103 
64 104 
64 113 
64 122 
64 130 
64 136 
64 137 
64 138 
64 139 
64 140 
64 141 
64 142 
64 146 
64 147 
64 148 
64 149 
64 150 
65 66 
65 67 
65 68 
65 69 
65 70 
65 76 
65 82 
65 87 
65 91 
65 93 
65 98 
65 111 
65 114 
65 116 
65 123 
65 126 
65 129 
65 133 
65 136 
65 140 
65 142 
65 143 
65 144 
65 145 
65 146 
65 166 
65 173 
65 176 
66 67 
66 68 
66 69 
66 70 
66 74 
66 76 
66 83 
66 92 
66 106 
66 107 
66 116 
66 119 
66 124 
66 127 
66 138 
66 144 
66 150 
66 151 
66 155 
66 159 
66 160 
66 161 
66 162 
66 163 
66 165 
66 176 
67 68 
67 69 
67 70 
67 79 
67 81 
67 88 
67 90 
67 99 
67 100 
67 107 
67 108 
67 117 
67 120 
67 126 
67 128 
67 129 
67 132 
67 137 
67 140 
67 142 
67 152 
67 156 
67 159 
67 161 
67 167 
67 172 
67 175 
68 69 
68 70 
68 79 
68 91 
68 97 
68 100 
68 109 
68 111 
68 114 
68 115 
68 128 
68 132 
68 134 
68 139 
68 141 
68 148 
68 149 
68 162 
68 163 
68 164 
68 165 
68 169 
68 170 
68 174 
69 70 
69 71 
69 77 
69 92 
69 94 
69 106 
69 117 
69 118 
69 125 
69 135 
69 137 
69 139 
69 144 
69 147 
69 154 
69 157 
69 164 
69 169 
69 171 
69 173 
69 174 
69 175 
69 176 
70 80 
70 82 
70 87 
70 90 
70 101 
70 102 
70 105 
70 110 
70 112 
70 120 
70 122 
70 134 
70 141 
70 145 
70 149 
70 150 
70 158 
70 161 
70 166 
70 171 
70 172 
70 174 
71 72 
71 73 
71 74 
71 75 
71 76 
71 77 
71 78 
71 79 
71 80 
71 81 
71 82 
71 83 
71 84 
71 85 
71 86 
71 87 
71 88 
71 89 
71 90 
71 91 
71 92 
71 106 
71 117 
71 125 
71 135 
71 139 
71 147 
71 169 
71 171 
71 175 
71 176 
72 73 
72 74 
72 75 
72 76 
72 77 
72 78 
72 79 
72 80 
72 81 
72 82 
72 84 
72 93 
72 99 
72 103 
72 104 
72 105 
72 106 
72 107 
72 108 
72 109 
72 110 
72 111 
72 133 
72 138 
72 148 
72 154 
72 160 
72 168 
72 170 
72 171 
72 172 
73 74 
73 75 
73 76 
73 77 
73 78 
73 79 
73 80 
73 81 
73 82 
73 84 
73 98 
73 104 
73 112 
73 113 
73 114 
73 115 
73 116 
73 117 
73 118 
73 119 
73 120 
73 121 
73 143 
73 147 
73 151 
73 156 
73 157 
73 158 
73 159 
74 75 
74 76 
74 77 
74 78 
74 79 
74 80 
74 81 
74 82 
74 83 
74 85 
74 95 
74 106 
74 116 
74 121 
74 124 
74 129 
74 130 
74 131 
74 132 
74 133 
74 134 
74 135 
74 144 
74 151 
74 160 
74 161 
74 162 
74 163 
75 76 
75 77 
75 78 
75 79 
75 80 
75 81 
75 82 
75 85 
75 86 
75 95 
75 97 
75 104 
75 105 
75 113 
75 115 
75 122 
75 136 
75 137 
75 138 
75 139 
75 140 
75 141 
75 146 
75 151 
75 152 
75 153 
75 154 
75 155 
76 77 
76 78 
76 79 
76 80 
76 81 
76 82 
76 87 
76 92 
76 93 
76 107 
76 114 
76 119 
76 123 
76 127 
76 129 
76 136 
76 138 
76 142 
76 143 
76 144 
76 145 
76 150 
76 155 
76 159 
76 165 
76 176 
77 78 
77 79 
77 80 
77 81 
77 82 
77 88 
77 92 
77 94 
77 96 
77 103 
77 118 
77 130 
77 137 
77 142 
77 144 
77 146 
77 147 
77 148 
77 149 
77 150 
77 154 
77 157 
77 164 
77 173 
77 174 
78 79 
78 80 
78 81 
78 82 
78 89 
78 102 
78 109 
78 113 
78 123 
78 125 
78 130 
78 131 
78 145 
78 152 
78 155 
78 156 
78 158 
78 160 
78 163 
78 164 
78 165 
78 166 
78 167 
78 168 
78 173 
78 175 
79 80 
79 81 
79 82 
79 90 
79 91 
79 99 
79 100 
79 107 
79 109 
79 115 
79 117 
79 126 
79 132 
79 134 
79 137 
79 139 
79 142 
79 149 
79 156 
79 161 
79 162 
79 164 
79 167 
79 170 
80 81 
80 82 
80 86 
80 87 
80 96 
80 102 
80 108 
80 110 
80 112 
80 118 
80 127 
80 131 
80 134 
80 141 
80 143 
80 150 
80 153 
80 161 
80 162 
80 166 
80 168 
80 169 
80 172 
81 82 
81 88 
81 89 
81 100 
81 101 
81 108 
81 110 
81 119 
81 120 
81 124 
81 128 
81 129 
81 135 
81 136 
81 140 
81 152 
81 153 
81 157 
81 159 
81 167 
81 170 
81 172 
81 175 
82 90 
82 91 
82 98 
82 101 
82 105 
82 111 
82 116 
82 120 
82 122 
82 126 
82 133 
82 140 
82 145 
82 146 
82 149 
82 158 
82 166 
82 171 
82 173 
82 174 
82 176 
83 84 
83 85 
83 86 
83 87 
83 88 
83 89 
83 90 
83 91 
83 92 
83 93 
83 94 
83 95 
83 96 
83 97 
83 98 
83 99 
83 100 
83 101 
83 102 
83 106 
83 116 
83 124 
83 144 
83 151 
83 160 
83 161 
83 162 
83 163 
84 85 
84 86 
84 87 
84 88 
84 89 
84 90 
84 91 
84 92 
84 93 
84 103 
84 104 
84 105 
84 106 
84 107 
84 108 
84 109 
84 110 
84 111 
84 112 
84 113 
84 114 
84 115 
84 116 
84 117 
84 118 
84 119 
84 120 
85 86 
85 87 
85 88 
85 89 
85 90 
85 91 
85 92 
85 95 
85 97 
85 105 
85 115 
85 121 
85 129 
85 130 
85 131 
85 132 
85 133 
85 134 
85 135 
85 146 
85 151 
85 152 
85 153 
85 154 
85 155 
86 87 
86 88 
86 89 
86 90 
86 91 
86 92 
86 95 
86 96 
86 104 
86 108 
86 113 
86 118 
86 122 
86 127 
86 131 
86 136 
86 137 
86 138 
86 139 
86 140 
86 141 
86 143 
86 153 
86 162 
86 168 
86 169 
87 88 
87 89 
87 90 
87 91 
87 92 
87 93 
87 102 
87 110 
87 112 
87 114 
87 123 
87 129 
87 134 
87 136 
87 141 
87 142 
87 143 
87 144 
87 145 
87 150 
87 161 
87 166 
87 172 
88 89 
88 90 
88 91 
88 92 
88 96 
88 100 
88 103 
88 108 
88 120 
88 128 
88 129 
88 130 
88 140 
88 142 
88 146 
88 147 
88 148 
88 149 
88 150 
88 152 
88 159 
88 172 
88 175 
89 90 
89 91 
89 92 
89 101 
89 110 
89 113 
89 119 
89 124 
89 125 
89 131 
89 135 
89 136 
89 145 
89 152 
89 153 
89 156 
89 157 
89 160 
89 164 
89 165 
89 166 
89 167 
89 170 
90 91 
90 92 
90 99 
90 101 
90 105 
90 107 
90 117 
90 120 
90 122 
90 126 
90 132 
90 137 
90 142 
90 145 
90 149 
90 156 
90 158 
90 161 
90 167 
90 171 
90 174 
91 92 
91 98 
91 100 
91 109 
91 111 
91 115 
91 116 
91 126 
91 133 
91 134 
91 139 
91 140 
91 146 
91 149 
91 162 
91 164 
91 166 
91 170 
91 173 
91 176 
92 94 
92 107 
92 118 
92 119 
92 127 
92 137 
92 138 
92 144 
92 150 
92 154 
92 155 
92 157 
92 159 
92 164 
92 165 
92 173 
92 174 
92 176 
93 94 
93 95 
93 96 
93 97 
93 98 
93 99 
93 100 
93 101 
93 102 
93 103 
93 104 
93 105 
93 106 
93 107 
93 108 
93 109 
93 110 
93 111 
93 114 
93 123 
93 129 
93 136 
93 142 
93 143 
93 144 
93 145 
94 95 
94 96 
94 97 
94 98 
94 99 
94 100 
94 101 
94 102 
94 103 
94 112 
94 118 
94 121 
94 122 
94 123 
94 124 
94 125 
94 126 
94 127 
94 128 
94 137 
94 144 
94 154 
94 157 
94 164 
94 173 
94 174 
95 96 
95 97 
95 98 
95 99 
95 100 
95 101 
95 102 
95 104 
95 113 
95 121 
95 122 
95 129 
95 130 
95 131 
95 132 
95 133 
95 134 
95 135 
95 136 
95 137 
95 138 
95 139 
95 140 
95 141 
96 97 
96 98 
96 99 
96 100 
96 101 
96 102 
96 103 
96 108 
96 118 
96 127 
96 130 
96 131 
96 142 
96 143 
96 146 
96 147 
96 148 
96 149 
96 150 
96 153 
96 162 
96 168 
96 169 
97 98 
97 99 
97 100 
97 101 
97 102 
97 105 
97 111 
97 114 
97 115 
97 128 
97 132 
97 141 
97 146 
97 148 
97 151 
97 152 
97 153 
97 154 
97 155 
97 163 
97 165 
97 169 
97 174 
98 99 
98 100 
98 101 
98 102 
98 104 
98 111 
98 116 
98 121 
98 126 
98 133 
98 140 
98 143 
98 146 
98 147 
98 151 
98 156 
98 157 
98 158 
98 159 
98 166 
98 173 
98 176 
99 100 
99 101 
99 102 
99 107 
99 117 
99 126 
99 132 
99 133 
99 137 
99 138 
99 142 
99 148 
99 154 
99 156 
99 160 
99 161 
99 167 
99 168 
99 170 
99 171 
99 172 
100 101 
100 102 
100 108 
100 109 
100 115 
100 120 
100 128 
100 129 
100 134 
100 139 
100 140 
100 149 
100 152 
100 159 
100 162 
100 164 
100 170 
100 172 
100 175 
101 102 
101 105 
101 110 
101 119 
101 120 
101 122 
101 124 
101 135 
101 136 
101 145 
101 149 
101 153 
101 157 
101 158 
101 167 
101 170 
101 171 
101 174 
102 109 
102 110 
102 112 
102 123 
102 130 
102 134 
102 141 
102 150 
102 155 
102 158 
102 161 
102 163 
102 166 
102 167 
102 168 
102 172 
102 173 
102 175 
103 104 
103 105 
103 106 
103 107 
103 108 
103 109 
103 110 
103 111 
103 112 
103 121 
103 122 
103 123 
103 124 
103 125 
103 126 
103 127 
103 128 
103 130 
103 142 
103 146 
103 147 
103 148 
103 149 
103 150 
104 105 
104 106 
104 107 
104 108 
104 109 
104 110 
104 111 
104 113 
104 121 
104 122 
104 136 
104 137 
104 138 
104 139 
104 140 
104 141 
104 143 
104 147 
104 151 
104 156 
104 157 
104 158 
104 159 
105 106 
105 107 
105 108 
105 109 
105 110 
105 111 
105 115 
105 120 
105 122 
105 145 
105 146 
105 149 
105 151 
105 152 
105 153 
105 154 
105 155 
105 158 
105 171 
105 174 
106 107 
106 108 
106 109 
106 110 
106 111 
106 116 
106 117 
106 124 
106 125 
106 135 
106 139 
106 144 
106 147 
106 151 
106 160 
106 161 
106 162 
106 163 
106 169 
106 171 
106 175 
106 176 
107 108 
107 109 
107 110 
107 111 
107 117 
107 119 
107 126 
107 127 
107 132 
107 137 
107 138 
107 142 
107 150 
107 155 
107 156 
107 159 
107 161 
107 165 
107 167 
107 176 
108 109 
108 110 
108 111 
108 118 
108 120 
108 127 
108 128 
108 129 
108 131 
108 140 
108 143 
108 152 
108 153 
108 159 
108 162 
108 168 
108 169 
108 172 
108 175 
109 110 
109 111 
109 115 
109 123 
109 130 
109 134 
109 139 
109 149 
109 155 
109 158 
109 162 
109 163 
109 164 
109 167 
109 168 
109 170 
109 173 
109 175 
110 111 
110 112 
110 119 
110 124 
110 134 
110 135 
110 136 
110 141 
110 150 
110 153 
110 157 
110 161 
110 166 
110 167 
110 170 
110 172 
111 114 
111 116 
111 126 
111 128 
111 132 
111 133 
111 140 
111 141 
111 146 
111 148 
111 163 
111 165 
111 166 
111 169 
111 173 
111 174 
111 176 
112 113 
112 114 
112 115 
112 116 
112 117 
112 118 
112 119 
112 120 
112 121 
112 122 
112 123 
112 124 
112 125 
112 126 
112 127 
112 128 
112 134 
112 141 
112 150 
112 161 
112 166 
112 172 
113 114 
113 115 
113 116 
113 117 
113 118 
113 119 
113 120 
113 122 
113 125 
113 131 
113 136 
113 137 
113 138 
113 139 
113 140 
113 141 
113 145 
113 152 
113 156 
113 160 
113 164 
113 165 
113 166 
114 115 
114 116 
114 117 
114 118 
114 119 
114 120 
114 123 
114 128 
114 129 
114 132 
114 136 
114 141 
114 142 
114 143 
114 144 
114 145 
114 148 
114 163 
114 165 
114 169 
114 174 
115 116 
115 117 
115 118 
115 119 
115 120 
115 134 
115 139 
115 146 
115 149 
115 151 
115 152 
115 153 
115 154 
115 155 
115 162 
115 164 
115 170 
116 117 
116 118 
116 119 
116 120 
116 124 
116 126 
116 133 
116 140 
116 144 
116 146 
116 151 
116 160 
116 161 
116 162 
116 163 
116 166 
116 173 
116 176 
117 118 
117 119 
117 120 
117 125 
117 126 
117 132 
117 135 
117 137 
117 139 
117 142 
117 147 
117 156 
117 161 
117 167 
117 169 
117 171 
117 175 
117 176 
118 119 
118 120 
118 127 
118 131 
118 137 
118 143 
118 144 
118 153 
118 154 
118 157 
118 162 
118 164 
118 168 
118 169 
118 173 
118 174 
119 120 
119 124 
119 127 
119 135 
119 136 
119 138 
119 150 
119 153 
119 155 
119 157 
119 159 
119 165 
119 167 
119 170 
119 176 
120 122 
120 128 
120 129 
120 140 
120 145 
120 149 
120 152 
120 158 
120 159 
120 171 
120 172 
120 174 
120 175 
121 122 
121 123 
121 124 
121 125 
121 126 
121 127 
121 128 
121 129 
121 130 
121 131 
121 132 
121 133 
121 134 
121 135 
121 143 
121 147 
121 151 
121 156 
121 157 
121 158 
121 159 
122 123 
122 124 
122 125 
122 126 
122 127 
122 128 
122 136 
122 137 
122 138 
122 139 
122 140 
122 141 
122 145 
122 149 
122 158 
122 171 
122 174 
123 124 
123 125 
123 126 
123 127 
123 128 
123 129 
123 130 
123 136 
123 142 
123 143 
123 144 
123 145 
123 155 
123 158 
123 163 
123 167 
123 168 
123 173 
123 175 
124 125 
124 126 
124 127 
124 128 
124 135 
124 136 
124 144 
124 151 
124 153 
124 157 
124 160 
124 161 
124 162 
124 163 
124 167 
124 170 
125 126 
125 127 
125 128 
125 131 
125 135 
125 139 
125 145 
125 147 
125 152 
125 156 
125 160 
125 164 
125 165 
125 166 
125 169 
125 171 
125 175 
125 176 
126 127 
126 128 
126 132 
126 133 
126 137 
126 140 
126 142 
126 146 
126 156 
126 161 
126 166 
126 167 
126 173 
126 176 
127 128 
127 131 
127 138 
127 143 
127 150 
127 153 
127 155 
127 159 
127 162 
127 165 
127 168 
127 169 
127 176 
128 129 
128 132 
128 140 
128 141 
128 148 
128 152 
128 159 
128 163 
128 165 
128 169 
128 172 
128 174 
128 175 
129 130 
129 131 
129 132 
129 133 
129 134 
129 135 
129 136 
129 140 
129 142 
129 143 
129 144 
129 145 
129 152 
129 159 
129 172 
129 175 
130 131 
130 132 
130 133 
130 134 
130 135 
130 142 
130 146 
130 147 
130 148 
130 149 
130 150 
130 155 
130 158 
130 163 
130 167 
130 168 
130 173 
130 175 
131 132 
131 133 
131 134 
131 135 
131 143 
131 145 
131 152 
131 153 
131 156 
131 160 
131 162 
131 164 
131 165 
131 166 
131 168 
131 169 
132 133 
132 134 
132 135 
132 137 
132 141 
132 142 
132 148 
132 156 
132 161 
132 163 
132 165 
132 167 
132 169 
132 174 
133 134 
133 135 
133 138 
133 140 
133 146 
133 148 
133 154 
133 160 
133 166 
133 168 
133 170 
133 171 
133 172 
133 173 
133 176 
134 135 
134 139 
134 141 
134 149 
134 150 
134 161 
134 162 
134 164 
134 166 
134 170 
134 172 
135 136 
135 139 
135 147 
135 153 
135 157 
135 167 
135 169 
135 170 
135 171 
135 175 
135 176 
136 137 
136 138 
136 139 
136 140 
136 141 
136 142 
136 143 
136 144 
136 145 
136 153 
136 157 
136 167 
136 170 
137 138 
137 139 
137 140 
137 141 
137 142 
137 144 
137 154 
137 156 
137 157 
137 161 
137 164 
137 167 
137 173 
137 174 
138 139 
138 140 
138 141 
138 148 
138 150 
138 154 
138 155 
138 159 
138 160 
138 165 
138 168 
138 170 
138 171 
138 172 
138 176 
139 140 
139 141 
139 147 
139 149 
139 162 
139 164 
139 169 
139 170 
139 171 
139 175 
139 176 
140 141 
140 146 
140 152 
140 159 
140 166 
140 172 
140 173 
140 175 
140 176 
141 148 
141 150 
141 161 
141 163 
141 165 
141 166 
141 169 
141 172 
141 174 
142 143 
142 144 
142 145 
142 146 
142 147 
142 148 
142 149 
142 150 
142 156 
142 161 
142 167 
143 144 
143 145 
143 147 
143 151 
143 153 
143 156 
143 157 
143 158 
143 159 
143 162 
143 168 
143 169 
144 145 
144 151 
144 154 
144 157 
144 160 
144 161 
144 162 
144 163 
144 164 
144 173 
144 174 
145 149 
145 152 
145 156 
145 158 
145 160 
145 164 
145 165 
145 166 
145 171 
145 174 
146 147 
146 148 
146 149 
146 150 
146 151 
146 152 
146 153 
146 154 
146 155 
146 166 
146 173 
146 176 
147 148 
147 149 
147 150 
147 151 
147 156 
147 157 
147 158 
147 159 
147 169 
147 171 
147 175 
147 176 
148 149 
148 150 
148 154 
148 160 
148 163 
148 165 
148 168 
148 169 
148 170 
148 171 
148 172 
148 174 
149 150 
149 158 
149 162 
149 164 
149 170 
149 171 
149 174 
150 155 
150 159 
150 161 
150 165 
150 166 
150 172 
150 176 
151 152 
151 153 
151 154 
151 155 
151 156 
151 157 
151 158 
151 159 
151 160 
151 161 
151 162 
151 163 
152 153 
152 154 
152 155 
152 156 
152 159 
152 160 
152 164 
152 165 
152 166 
152 172 
152 175 
153 154 
153 155 
153 157 
153 162 
153 167 
153 168 
153 169 
153 170 
154 155 
154 157 
154 160 
154 164 
154 168 
154 170 
154 171 
154 172 
154 173 
154 174 
155 158 
155 159 
155 163 
155 165 
155 167 
155 168 
155 173 
155 175 
155 176 
156 157 
156 158 
156 159 
156 160 
156 161 
156 164 
156 165 
156 166 
156 167 
157 158 
157 159 
157 164 
157 167 
157 170 
157 173 
157 174 
158 159 
158 163 
158 167 
158 168 
158 171 
158 173 
158 174 
158 175 
159 165 
159 172 
159 175 
159 176 
160 161 
160 162 
160 163 
160 164 
160 165 
160 166 
160 168 
160 170 
160 171 
160 172 
161 162 
161 163 
161 166 
161 167 
161 172 
162 163 
162 164 
162 168 
162 169 
162 170 
163 165 
163 167 
163 168 
163 169 
163 173 
163 174 
163 175 
164 165 
164 166 
164 170 
164 173 
164 174 
165 166 
165 169 
165 174 
165 176 
166 172 
166 173 
166 176 
167 168 
167 170 
167 173 
167 175 
168 169 
168 170 
168 171 
168 172 
168 173 
168 175 
169 171 
169 174 
169 175 
169 176 
170 171 
170 172 
171 172 
171 174 
171 175 
171 176 
172 175 
173 174 
173 175 
173 176 
175 176 
